
Gurobi 12.0.1 (mac64[x86], gurobi_cl) logging started Thu Apr  9 23:13:36 2026

Set parameter Username
Set parameter LicenseID to value 2804832
Set parameter LogFile to value "gurobi.log"
Using license file /Users/pauorive23/gurobi.lic

Gurobi 12.0.1 (mac64[x86], gurobi_cl) logging started Fri Apr 24 18:31:03 2026

Set parameter Username
Set parameter LicenseID to value 2804832
Set parameter LogFile to value "gurobi.log"
Using license file /Users/pauorive23/gurobi.lic

Gurobi 12.0.1 (mac64[x86], gurobi_cl) logging started Fri Apr 24 18:31:47 2026

Set parameter WLSAccessID
Set parameter WLSSecret
Set parameter LicenseID to value 2809983
Set parameter LogFile to value "gurobi.log"
Using license file /Users/pauorive23/gurobi.lic
Academic license 2809983 - for non-commercial use only - registered to pa___@bse.eu
